(set-logic HORN)
(set-info :source |
    Benchmark: C_VC
    Output by Princess (http://www.philipp.ruemmer.org/princess.shtml)
|)
(set-info :status unknown)
(declare-fun inv_main23 (Int Int Int Int Int) Bool)
(declare-fun inv_main24 (Int Int Int Int Int) Bool)
(declare-fun inv_main28 (Int Int Int Int Int) Bool)
(declare-fun inv_main3 (Int) Bool)
(declare-fun inv_main31 (Int Int Int Int Int) Bool)
(declare-fun inv_main34 (Int Int Int Int Int) Bool)
(declare-fun inv_main35 (Int Int Int Int Int) Bool)
(declare-fun inv_main36 (Int Int Int Int Int) Bool)
(declare-fun inv_main38 (Int Int Int Int Int) Bool)
(declare-fun inv_main39 (Int Int Int Int Int) Bool)
(assert (forall ((var0 Int)) (inv_main3 var0 ) ) )
(assert (forall ((var0 Int)) (forall ((var1 Int)) (forall ((var2 Int)) (forall ((var3 Int)) (forall ((var4 Int)) (or (not (inv_main28 var0 var4 var3 var1 var2 ) ) (inv_main31 var0 var4 var3 var1 var2 ) ) ) ) ) ) ) )
(assert (forall ((var0 Int)) (forall ((var1 Int)) (forall ((var2 Int)) (forall ((var3 Int)) (forall ((var4 Int)) (or (not (inv_main34 var0 var4 var3 var1 var2 ) ) (inv_main35 var0 var4 var3 var1 var2 ) ) ) ) ) ) ) )
(assert (forall ((var0 Int)) (forall ((var1 Int)) (forall ((var2 Int)) (forall ((var3 Int)) (forall ((var4 Int)) (or (not (inv_main35 var0 var4 var3 var1 var2 ) ) (inv_main23 var0 var4 var3 var1 var2 ) ) ) ) ) ) ) )
(assert (forall ((var0 Int)) (forall ((var1 Int)) (forall ((var2 Int)) (forall ((var3 Int)) (forall ((var4 Int)) (or (not (inv_main24 var0 var4 var3 var1 var2 ) ) (inv_main36 var0 var4 var3 var1 var2 ) ) ) ) ) ) ) )
(assert (forall ((var0 Int)) (forall ((var1 Int)) (forall ((var2 Int)) (forall ((var3 Int)) (forall ((var4 Int)) (or (not (inv_main38 var0 var4 var3 var1 var2 ) ) (inv_main39 var0 var4 var3 var1 var2 ) ) ) ) ) ) ) )
(assert (forall ((var0 Int)) (forall ((var1 Int)) (forall ((var2 Int)) (forall ((var3 Int)) (forall ((var4 Int)) (forall ((var5 Int)) (or (not (and (inv_main23 var0 var4 var3 var1 var2 ) (= var5 0 ) ) ) (inv_main24 var0 var4 var3 var1 var2 ) ) ) ) ) ) ) ) )
(assert (forall ((var0 Int)) (forall ((var1 Int)) (forall ((var2 Int)) (forall ((var3 Int)) (forall ((var4 Int)) (forall ((var5 Int)) (or (not (and (inv_main23 var0 var5 var3 var1 var2 ) (and (= var1 var2 ) (not (= var4 0 ) ) ) ) ) (inv_main24 var0 var5 var3 var1 var2 ) ) ) ) ) ) ) ) )
(assert (forall ((var0 Int)) (forall ((var1 Int)) (forall ((var2 Int)) (forall ((var3 Int)) (forall ((var4 Int)) (forall ((var5 Int)) (or (not (and (inv_main23 var0 var5 var3 var1 var2 ) (and (not (= var1 var2 ) ) (not (= var4 0 ) ) ) ) ) (inv_main28 var0 var5 var3 var1 var2 ) ) ) ) ) ) ) ) )
(assert (forall ((var0 Int)) (forall ((var1 Int)) (forall ((var2 Int)) (forall ((var3 Int)) (forall ((var4 Int)) (or (not (inv_main31 var0 var4 var3 var1 var2 ) ) (inv_main34 (+ var0 1 ) var4 var3 (+ var1 1 ) var2 ) ) ) ) ) ) ) )
(assert (forall ((var0 Int)) (forall ((var1 Int)) (forall ((var2 Int)) (forall ((var3 Int)) (forall ((var4 Int)) (or (not (inv_main36 var0 var4 var3 var1 var2 ) ) (inv_main38 var0 var4 var3 (+ var1 1 ) var2 ) ) ) ) ) ) ) )
(assert (forall ((var0 Int)) (forall ((var1 Int)) (forall ((var2 Int)) (or (not (and (inv_main3 var0 ) (and (<= 0 (+ (+ var1 (* (- 1) var2 ) ) (- 1) ) ) (and (<= 0 (+ var1 (- 1) ) ) (<= 0 (+ (+ var2 (- 1) ) (- 1) ) ) ) ) ) ) (inv_main23 0 var1 var2 0 (+ var2 (- 2) ) ) ) ) ) ) )
(assert (forall ((var0 Int)) (forall ((var1 Int)) (forall ((var2 Int)) (forall ((var3 Int)) (forall ((var4 Int)) (not (and (inv_main28 var0 var4 var3 var1 var2 ) (not (<= 0 var1 ) ) ) ) ) ) ) ) ) )
(assert (forall ((var0 Int)) (forall ((var1 Int)) (forall ((var2 Int)) (forall ((var3 Int)) (forall ((var4 Int)) (not (and (inv_main31 var0 var4 var3 var1 var2 ) (not (<= 0 (+ (+ var3 (* (- 1) var1 ) ) (- 1) ) ) ) ) ) ) ) ) ) ) )
(assert (forall ((var0 Int)) (forall ((var1 Int)) (forall ((var2 Int)) (forall ((var3 Int)) (forall ((var4 Int)) (not (and (inv_main34 var0 var4 var3 var1 var2 ) (not (<= 0 var0 ) ) ) ) ) ) ) ) ) )
(assert (forall ((var0 Int)) (forall ((var1 Int)) (forall ((var2 Int)) (forall ((var3 Int)) (forall ((var4 Int)) (not (and (inv_main35 var0 var4 var3 var1 var2 ) (not (<= 0 (+ (+ var4 (* (- 1) var0 ) ) (- 1) ) ) ) ) ) ) ) ) ) ) )
(assert (forall ((var0 Int)) (forall ((var1 Int)) (forall ((var2 Int)) (forall ((var3 Int)) (forall ((var4 Int)) (not (and (inv_main24 var0 var4 var3 var1 var2 ) (not (<= 0 var1 ) ) ) ) ) ) ) ) ) )
(assert (forall ((var0 Int)) (forall ((var1 Int)) (forall ((var2 Int)) (forall ((var3 Int)) (forall ((var4 Int)) (not (and (inv_main36 var0 var4 var3 var1 var2 ) (not (<= 0 (+ (+ var3 (* (- 1) var1 ) ) (- 1) ) ) ) ) ) ) ) ) ) ) )
(assert (forall ((var0 Int)) (forall ((var1 Int)) (forall ((var2 Int)) (forall ((var3 Int)) (forall ((var4 Int)) (not (and (inv_main38 var0 var4 var3 var1 var2 ) (not (<= 0 var1 ) ) ) ) ) ) ) ) ) )
(assert (forall ((var0 Int)) (forall ((var1 Int)) (forall ((var2 Int)) (forall ((var3 Int)) (forall ((var4 Int)) (not (and (inv_main39 var0 var4 var3 var1 var2 ) (not (<= 0 (+ (+ var3 (* (- 1) var1 ) ) (- 1) ) ) ) ) ) ) ) ) ) ) )
(check-sat)
